
List of user-set options:

                                    Name   Value                used
                        file_print_level = 5                     yes
                   hessian_approximation = limited-memory        yes
                                  hsllib = /home/ggs24/packages/ThirdParty-HSL/.libs/libcoinhsl.so  yes
                           linear_solver = ma97                  yes
                                max_iter = 500                   yes
                             output_file = IPOPT.out             yes
                             print_level = 0                     yes
                      print_user_options = yes                   yes
                                      sb = yes                   yes
This is Ipopt version 3.14.7, running with linear solver ma97.

Number of nonzeros in equality constraint Jacobian...:       60
Number of nonzeros in inequality constraint Jacobian.:     3660
Number of nonzeros in Lagrangian Hessian.............:        0

Total number of variables............................:       15
                     variables with only lower bounds:        1
                variables with lower and upper bounds:        0
                     variables with only upper bounds:        0
Total number of equality constraints.................:        4
Total number of inequality constraints...............:      244
        inequality constraints with only lower bounds:        0
   inequality constraints with lower and upper bounds:      183
        inequality constraints with only upper bounds:       61

iter    objective    inf_pr   inf_du lg(mu)  ||d||  lg(rg) alpha_du alpha_pr  ls
   0  1.1993803e+01 8.98e-01 1.00e+00   0.0 0.00e+00    -  0.00e+00 0.00e+00   0
   1  1.1870656e+01 8.79e-01 1.43e+00  -1.2 6.40e+00    -  2.91e-02 1.95e-02f  1
   2  1.1868986e+01 8.79e-01 4.17e+01  -1.7 2.30e+01    -  5.17e-03 3.12e-04h  1
   3  1.1870127e+01 8.78e-01 8.49e+01   0.6 2.20e+02    -  1.18e-04 8.03e-05h  1
   4  1.1865149e+01 8.77e-01 2.10e+02   0.1 1.98e+01    -  2.06e-03 3.17e-04f  1
   5  1.1857568e+01 8.77e-01 2.24e+02  -0.5 2.50e+02    -  4.20e-04 4.04e-04f  1
   6  1.1824739e+01 8.74e-01 1.80e+02   0.2 2.37e+01    -  5.76e-03 1.90e-03f  1
   7  1.1821340e+01 8.75e-01 6.18e+02  -6.2 1.13e+02    -  1.72e-03 6.08e-04h  1
   8  1.1801316e+01 8.74e-01 2.72e+02  -0.7 7.12e+01    -  1.65e-03 3.07e-03h  1
   9  1.1783688e+01 8.66e-01 1.90e+02  -1.1 1.64e+01    -  1.75e-03 8.00e-03h  1
iter    objective    inf_pr   inf_du lg(mu)  ||d||  lg(rg) alpha_du alpha_pr  ls
  10  1.1781510e+01 8.65e-01 1.90e+02  -6.2 2.18e+01    -  2.20e-03 5.80e-04h  1
  11  1.1762607e+01 8.61e-01 2.14e+02  -0.4 2.97e+01    -  6.02e-03 4.06e-03f  1
  12  1.1746574e+01 8.56e-01 2.13e+02  -0.3 1.89e+01    -  5.05e-03 5.48e-03f  1
  13  1.1724704e+01 8.50e-01 2.33e+02  -0.2 1.27e+01    -  4.93e-03 6.15e-03f  1
  14  1.1687798e+01 8.44e-01 2.50e+02   0.3 9.33e+00    -  4.63e-03 5.96e-03f  1
  15  1.1675123e+01 8.41e-01 2.62e+02  -6.2 5.95e+00    -  4.79e-03 4.21e-03h  1
  16  1.1626843e+01 8.32e-01 2.91e+02  -0.6 5.90e+00    -  5.95e-02 1.05e-02f  1
  17  1.1500829e+01 8.09e-01 3.47e+02   0.3 5.95e+00    -  6.13e-03 2.26e-02f  1
  18  1.1252171e+01 7.60e-01 4.26e+02  -0.9 5.07e+00    -  1.39e-01 6.03e-02f  1
  19  1.1250594e+01 7.60e-01 4.27e+02  -6.3 4.87e+00    -  6.79e-03 3.94e-04h  1
iter    objective    inf_pr   inf_du lg(mu)  ||d||  lg(rg) alpha_du alpha_pr  ls
  20  1.0982653e+01 7.04e-01 4.74e+02  -0.5 4.48e+00    -  1.15e-01 7.14e-02f  1
  21  1.0762680e+01 6.53e-01 4.96e+02  -0.3 3.96e+00    -  4.98e-02 6.85e-02h  1
  22  1.0758500e+01 6.52e-01 4.97e+02  -6.3 3.46e+00    -  1.07e-02 1.52e-03h  1
  23  1.0409174e+01 5.74e-01 4.98e+02  -0.3 3.55e+00    -  7.32e-02 1.16e-01h  1
  24  1.0389583e+01 5.70e-01 4.98e+02  -1.4 4.88e+00    -  8.16e-03 6.90e-03h  1
  25  1.0272465e+01 5.44e-01 4.93e+02  -2.0 5.71e+00    -  4.98e-02 3.85e-02h  1
  26  1.0091204e+01 4.94e-01 4.84e+02  -0.4 4.12e+00    -  3.20e-02 7.27e-02f  1
  27  9.6512598e+00 3.71e-01 4.38e+02  -0.8 2.38e+00    -  1.62e-01 2.32e-01f  1
  28  9.6250580e+00 3.63e-01 4.32e+02  -6.4 1.75e+00    -  1.02e-01 1.90e-02h  1
  29  9.4220725e+00 3.03e-01 3.84e+02  -1.5 1.73e+00    -  2.03e-01 1.48e-01f  1
iter    objective    inf_pr   inf_du lg(mu)  ||d||  lg(rg) alpha_du alpha_pr  ls
  30  9.2234998e+00 2.43e-01 3.25e+02  -6.5 1.34e+00    -  9.97e-02 1.84e-01h  1
  31  8.6813419e+00 5.96e-02 2.34e+02  -2.7 1.01e+00    -  3.19e-01 6.66e-01h  1
  32  8.6738500e+00 5.65e-02 2.38e+02  -6.7 2.62e-01    -  3.19e-01 4.06e-02h  1
  33  8.4979228e+00 5.46e-05 1.27e+02  -3.0 2.55e-01    -  1.59e-01 9.90e-01h  1
  34  8.5001756e+00 8.88e-16 1.68e+01  -7.0 5.65e-03    -  8.69e-01 9.90e-01h  1
  35  8.4938218e+00 2.22e-16 3.67e+02  -3.7 2.14e-01    -  7.72e-01 9.97e-01h  1
  36  8.4787081e+00 7.92e-04 1.14e+05  -3.6 2.02e-01    -  5.15e-01 9.69e-01h  1
  37  8.4685640e+00 3.98e-04 3.54e+04  -4.6 4.64e-02    -  3.55e-01 5.30e-01h  1
  38  8.4640106e+00 4.44e-16 1.44e+05  -3.0 2.47e-01    -  3.00e-01 4.19e-01f  2
  39  8.4595116e+00 0.00e+00 1.29e-03  -3.4 4.34e-02    -  1.00e+00 1.00e+00h  1
iter    objective    inf_pr   inf_du lg(mu)  ||d||  lg(rg) alpha_du alpha_pr  ls
  40  8.4469498e+00 7.00e-06 3.32e+04  -4.5 2.56e-02    -  8.67e-01 9.41e-01h  1
  41  8.4441551e+00 7.82e-06 1.23e+04  -6.2 2.72e-02    -  8.58e-01 5.81e-01h  1
  42  8.4438197e+00 4.15e-06 3.48e+03  -4.8 7.24e-03    -  1.00e+00 5.63e-01h  1
  43  8.4437032e+00 8.13e-07 3.98e+02  -4.8 5.17e-03    -  7.71e-01 9.16e-01h  1
  44  8.4435626e+00 6.07e-07 7.70e+03  -6.1 4.17e-03    -  1.00e+00 5.40e-01h  1
  45  8.4435260e+00 1.05e-07 1.85e+03  -6.3 5.99e-03    -  1.00e+00 7.69e-01h  1
  46  8.4435139e+00 4.17e-07 7.05e+01  -7.5 3.95e-03    -  1.00e+00 9.70e-01h  1
  47  8.4435134e+00 2.46e-08 5.05e-06  -9.0 8.39e-04    -  1.00e+00 9.99e-01h  1
  48  8.4435134e+00 6.68e-11 4.09e-08 -11.0 4.81e-05    -  1.00e+00 1.00e+00h  1
  49  8.4435134e+00 4.44e-16 2.75e-10 -11.0 2.78e-07    -  1.00e+00 1.00e+00h  1

Number of Iterations....: 49

                                   (scaled)                 (unscaled)
Objective...............:   8.4435133775966253e+00    8.4435133775966253e+00
Dual infeasibility......:   2.7492196366663002e-10    2.7492196366663002e-10
Constraint violation....:   4.4408920985006262e-16    4.4408920985006262e-16
Variable bound violation:   0.0000000000000000e+00    0.0000000000000000e+00
Complementarity.........:   1.0002998307358894e-11    1.0002998307358894e-11
Overall NLP error.......:   2.7492196366663002e-10    2.7492196366663002e-10


Number of objective function evaluations             = 53
Number of objective gradient evaluations             = 50
Number of equality constraint evaluations            = 53
Number of inequality constraint evaluations          = 53
Number of equality constraint Jacobian evaluations   = 50
Number of inequality constraint Jacobian evaluations = 50
Number of Lagrangian Hessian evaluations             = 0
Total seconds in IPOPT                               = 6.716

EXIT: Optimal Solution Found.
